10J3M/DAT/10J3MNNA-14.dat
10 3
23.3595 545.6662
26.9432 725.936
21.2808 452.8724
18.9499 359.0987
22.1627 491.1853
26.2413 688.6058
26.8885 722.9914
29.3652 862.315
18.5515 344.1582
31.8013 1011.3227
6204.1517