10J3M/SOL/10J3MNNA-14.sol
solution status: optimal solution found
objective value:                              83.9932
x#1#3                                               1 	(obj:0)
x#2#1                                               1 	(obj:0)
x#3#2                                               1 	(obj:0)
x#4#2                                               1 	(obj:0)
x#5#1                                               1 	(obj:0)
x#6#2                                               1 	(obj:0)
x#7#3                                               1 	(obj:0)
x#8#1                                0.64538587566368 	(obj:0)
x#8#3                                0.35461412433632 	(obj:0)
x#9#2                               0.694246951168509 	(obj:0)
x#9#3                               0.305753048831491 	(obj:0)
x#10#1                                              1 	(obj:0)
z                                             83.9932 	(obj:1)
